300-319
320-339
340-359
360-379
380-399
400-419
420-439
440-459
460-479
480-499
500-519
520-539
540-559
560-579
580-599
600-619
620-639
640-659
660-679
680-699
700-719
720-739
740-759
760-779
780-799
800-819
820-839
840-859
860-879
880-899
900-919
920-939
940-959
960-979
980-999
